coords = array2d(1..43, 1..2, [559, 224, 405, 322, 709, 630, 916, 386, 542,
    391, 290, 523, 143, 139, 354, 200, 701, 325, 211, 953, 146, 113,
    24, 743, 362, 123, 685, 202, 371, 236, 166, 633, 859, 855, 514,
    310, 30, 438, 992, 878, 433, 801, 440, 927, 228, 649, 164, 641,
    997, 419, 264, 863, 770, 288, 567, 619, 394, 981, 215, 373, 640,
    570, 525, 784, 162, 121, 839, 17, 636, 399, 663, 942, 722, 12,
    561, 788, 243, 416, 353, 681, 176, 109, 574, 706, 732, 407]);

n = 43;

